p cnf 12 25
7 6 -1 -3 9 0
-9 11 0
-9 5 0
-11 -7 -10 11 0
-4 11 -12 0
-7 3 4 0
11 10 -2 -1 -7 0
9 2 9 10 10 3 -1 -1 -5 11 -7 0
12 -9 -4 0
-3 8 8 -12 3 8 -9 4 7 4 0
12 4 -7 -11 0
-8 1 2 2 8 11 -6 5 6 12 0
-1 3 -3 -3 10 -4 8 -6 -9 10 0
-10 8 8 5 9 12 -10 -4 0
6 11 12 9 10 6 -10 2 11 -4 11 0
6 -6 -2 -8 4 11 0
6 1 11 0
5 0
-7 2 4 -8 8 7 -10 -3 -8 0
-10 9 0
-12 1 -5 -4 -2 -1 -1 -8 6 -5 12 0
5 -7 -3 1 0
-4 -12 -10 -11 11 4 -4 9 -1 3 0
4 -2 12 -9 -4 7 -8 -11 3 -8 0
-12 0